40
0 1 0.67 0.19
0 2 0.26 0.16
0 3 0.4 0.18
0 4 0.51 0.08
0 5 0.81 0.3
0 6 0.58 0.18
0 7 0.72 0.32
0 8 0.67 0.25
0 9 0.71 0.21
0 10 0.52 0.28
0 11 0.64 0.22
0 12 0.4 0.23
0 13 0.55 0.3
0 14 0.72 0.1
0 15 0.54 0.16
0 16 0.56 0.32
0 17 0.67 0.18
0 18 0.23 0.2
0 19 0.55 0.32
0 20 0.62 0.28
0 21 0.4 0.3
0 22 0.53 0.28
0 23 0.57 0.1
0 24 0.55 0.22
0 25 0.52 0.14
0 26 0.72 0.26
0 27 0.48 0.04
0 28 0.76 0.34
0 29 0.51 0.22
0 30 0.77 0.18
0 31 0.68 0.22
0 32 0.77 0.25
0 33 0.45 0.23
0 34 0.56 0.2
0 35 0.75 0.23
0 36 0.59 0.18
0 37 0.68 0.3
0 38 0.7 0.2
0 39 0.64 0.22
1 2 0.67 0.3
1 3 0.51 0.22
1 4 0.54 0.2
1 5 0.52 0.15
1 6 0.66 0.12
1 7 0.55 0.26
1 8 0.54 0.06
1 9 0.69 0.26
1 10 0.39 0.24
1 11 0.4 0.16
1 12 0.54 0.18
1 13 0.71 0.32
1 14 0.38 0.18
1 15 0.62 0.17
1 16 0.59 0.14
1 17 0.58 0.14
1 18 0.53 0.16
1 19 0.53 0.28
1 20 0.59 0.22
1 21 0.27 0.16
1 22 0.69 0.18
1 23 0.47 0.23
1 24 0.47 0.34
1 25 0.34 0.2
1 26 0.51 0.25
1 27 0.28 0.16
1 28 0.56 0.3
1 29 0.72 0.23
1 30 0.59 0.24
1 31 0.4 0.23
1 32 0.27 0.25
1 33 0.74 0.19
1 34 0.36 0.11
1 35 0.42 0.24
1 36 0.59 0.14
1 37 0.75 0.26
1 38 0.55 0.27
1 39 0.72 0.1
2 3 0.34 0.16
2 4 0.46 0.24
2 5 0.57 0.3
2 6 0.35 0.26
2 7 0.51 0.28
2 8 0.74 0.32
2 9 0.59 0.22
2 10 0.41 0.12
2 11 0.38 0.3
2 12 0.44 0.18
2 13 0.72 0.24
2 14 0.6 0.24
2 15 0.39 0.27
2 16 0.3 0.16
2 17 0.6 0.34
2 18 0.44 0.3
2 19 0.71 0.32
2 20 0.68 0.24
2 21 0.53 0.2
2 22 0.56 0.35
2 23 0.62 0.16
2 24 0.45 0.36
2 25 0.78 0.3
2 26 0.58 0.29
2 27 0.42 0.2
2 28 0.66 0.29
2 29 0.64 0.32
2 30 0.73 0.24
2 31 0.52 0.27
2 32 0.56 0.27
2 33 0.57 0.35
2 34 0.46 0.28
2 35 0.66 0.24
2 36 0.64 0.3
2 37 0.66 0.35
2 38 0.78 0.21
2 39 0.56 0.26
3 4 0.49 0.26
3 5 0.44 0.2
3 6 0.58 0.31
3 7 0.64 0.26
3 8 0.4 0.27
3 9 0.34 0.23
3 10 0.52 0.2
3 11 0.38 0.3
3 12 0.48 0.2
3 13 0.56 0.12
3 14 0.64 0.28
3 15 0.21 0.16
3 16 0.45 0.14
3 17 0.5 0.2
3 18 0.63 0.25
3 19 0.78 0.34
3 20 0.4 0.19
3 21 0.64 0.26
3 22 0.55 0.32
3 23 0.62 0.14
3 24 0.49 0.4
3 25 0.48 0.2
3 26 0.62 0.36
3 27 0.63 0.22
3 28 0.42 0.17
3 29 0.6 0.37
3 30 0.65 0.22
3 31 0.28 0.12
3 32 0.58 0.28
3 33 0.23 0.2
3 34 0.63 0.26
3 35 0.56 0.25
3 36 0.42 0.16
3 37 0.38 0.28
3 38 0.64 0.22
3 39 0.24 0.12
4 5 0.75 0.22
4 6 0.6 0.2
4 7 0.64 0.24
4 8 0.67 0.21
4 9 0.64 0.13
4 10 0.48 0.27
4 11 0.58 0.22
4 12 0.32 0.15
4 13 0.75 0.22
4 14 0.43 0.02
4 15 0.68 0.24
4 16 0.73 0.25
4 17 0.55 0.17
4 18 0.68 0.19
4 19 0.5 0.24
4 20 0.64 0.27
4 21 0.6 0.23
4 22 0.6 0.2
4 23 0.78 0.18
4 24 0.78 0.18
4 25 0.61 0.06
4 26 0.59 0.18
4 27 0.63 0.12
4 28 0.54 0.27
4 29 0.62 0.14
4 30 0.48 0.12
4 31 0.48 0.14
4 32 0.64 0.17
4 33 0.26 0.22
4 34 0.6 0.28
4 35 0.4 0.15
4 36 0.63 0.1
4 37 0.66 0.22
4 38 0.74 0.12
4 39 0.56 0.14
5 6 0.6 0.27
5 7 0.5 0.26
5 8 0.7 0.09
5 9 0.6 0.2
5 10 0.58 0.18
5 11 0.76 0.31
5 12 0.8 0.23
5 13 0.54 0.3
5 14 0.68 0.24
5 15 0.48 0.32
5 16 0.27 0.14
5 17 0.48 0.17
5 18 0.76 0.19
5 19 0.8 0.33
5 20 0.58 0.22
5 21 0.46 0.22
5 22 0.63 0.26
5 23 0.64 0.3
5 24 0.67 0.36
5 25 0.58 0.16
5 26 0.6 0.38
5 27 0.78 0.27
5 28 0.64 0.33
5 29 0.62 0.26
5 30 0.44 0.3
5 31 0.3 0.08
5 32 0.66 0.22
5 33 0.49 0.14
5 34 0.53 0.26
5 35 0.63 0.22
5 36 0.45 0.2
5 37 0.82 0.3
5 38 0.52 0.21
5 39 0.65 0.24
6 7 0.6 0.32
6 8 0.8 0.18
6 9 0.54 0.25
6 10 0.71 0.34
6 11 0.46 0.04
6 12 0.5 0.24
6 13 0.5 0.25
6 14 0.66 0.22
6 15 0.54 0.16
6 16 0.54 0.2
6 17 0.7 0.26
6 18 0.61 0.23
6 19 0.68 0.29
6 20 0.6 0.12
6 21 0.59 0.28
6 22 0.56 0.24
6 23 0.78 0.2
6 24 0.63 0.27
6 25 0.75 0.26
6 26 0.59 0.33
6 27 0.44 0.14
6 28 0.74 0.2
6 29 0.58 0.3
6 30 0.42 0.12
6 31 0.58 0.31
6 32 0.7 0.36
6 33 0.54 0.31
6 34 0.75 0.23
6 35 0.62 0.27
6 36 0.62 0.21
6 37 0.83 0.28
6 38 0.7 0.24
6 39 0.34 0.22
7 8 0.48 0.32
7 9 0.4 0.18
7 10 0.48 0.28
7 11 0.44 0.31
7 12 0.32 0.24
7 13 0.36 0.2
7 14 0.62 0.26
7 15 0.74 0.4
7 16 0.56 0.12
7 17 0.62 0.26
7 18 0.52 0.29
7 19 0.44 0.24
7 20 0.43 0.2
7 21 0.6 0.24
7 22 0.56 0.35
7 23 0.62 0.29
7 24 0.66 0.36
7 25 0.31 0.18
7 26 0.26 0.22
7 27 0.74 0.36
7 28 0.44 0.15
7 29 0.61 0.38
7 30 0.54 0.36
7 31 0.64 0.23
7 32 0.5 0.28
7 33 0.6 0.31
7 34 0.42 0.22
7 35 0.58 0.2
7 36 0.56 0.22
7 37 0.53 0.34
7 38 0.67 0.19
7 39 0.56 0.26
8 9 0.53 0.2
8 10 0.61 0.21
8 11 0.46 0.22
8 12 0.42 0.14
8 13 0.6 0.26
8 14 0.62 0.2
8 15 0.61 0.23
8 16 0.5 0.2
8 17 0.4 0.08
8 18 0.44 0.1
8 19 0.76 0.33
8 20 0.48 0.26
8 21 0.49 0.13
8 22 0.55 0.2
8 23 0.7 0.29
8 24 0.64 0.36
8 25 0.65 0.24
8 26 0.74 0.31
8 27 0.68 0.22
8 28 0.48 0.24
8 29 0.24 0.17
8 30 0.7 0.21
8 31 0.55 0.17
8 32 0.61 0.21
8 33 0.63 0.13
8 34 0.71 0.17
8 35 0.46 0.18
8 36 0.48 0.11
8 37 0.56 0.22
8 38 0.67 0.21
8 39 0.46 0.15
9 10 0.64 0.23
9 11 0.72 0.21
9 12 0.49 0.15
9 13 0.74 0.11
9 14 0.8 0.15
9 15 0.55 0.22
9 16 0.68 0.2
9 17 0.55 0.18
9 18 0.52 0.23
9 19 0.48 0.13
9 20 0.32 0.24
9 21 0.61 0.26
9 22 0.64 0.3
9 23 0.55 0.26
9 24 0.52 0.28
9 25 0.56 0.15
9 26 0.54 0.18
9 27 0.63 0.25
9 28 0.7 0.14
9 29 0.56 0.27
9 30 0.64 0.18
9 31 0.3 0.12
9 32 0.74 0.14
9 33 0.57 0.22
9 34 0.48 0.16
9 35 0.76 0.02
9 36 0.63 0.23
9 37 0.6 0.18
9 38 0.46 0.01
9 39 0.58 0.23
10 11 0.7 0.33
10 12 0.58 0.3
10 13 0.32 0.12
10 14 0.56 0.29
10 15 0.57 0.36
10 16 0.44 0.16
10 17 0.53 0.28
10 18 0.64 0.18
10 19 0.72 0.34
10 20 0.48 0.24
10 21 0.12 0.08
10 22 0.46 0.32
10 23 0.56 0.28
10 24 0.48 0.24
10 25 0.68 0.3
10 26 0.51 0.31
10 27 0.66 0.32
10 28 0.64 0.17
10 29 0.72 0.38
10 30 0.32 0.22
10 31 0.58 0.26
10 32 0.46 0.15
10 33 0.46 0.23
10 34 0.35 0.18
10 35 0.62 0.25
10 36 0.58 0.27
10 37 0.56 0.23
10 38 0.44 0.22
10 39 0.68 0.31
11 12 0.58 0.28
11 13 0.6 0.21
11 14 0.78 0.2
11 15 0.59 0.2
11 16 0.68 0.24
11 17 0.51 0.28
11 18 0.74 0.24
11 19 0.78 0.32
11 20 0.7 0.16
11 21 0.66 0.32
11 22 0.66 0.28
11 23 0.72 0.24
11 24 0.73 0.31
11 25 0.6 0.28
11 26 0.7 0.36
11 27 0.54 0.18
11 28 0.28 0.16
11 29 0.46 0.32
11 30 0.58 0.16
11 31 0.52 0.33
11 32 0.52 0.33
11 33 0.61 0.33
11 34 0.67 0.27
11 35 0.42 0.23
11 36 0.54 0.25
11 37 0.62 0.32
11 38 0.53 0.2
11 39 0.62 0.26
12 13 0.68 0.26
12 14 0.75 0.17
12 15 0.6 0.35
12 16 0.56 0.2
12 17 0.71 0.19
12 18 0.63 0.21
12 19 0.51 0.24
12 20 0.32 0.12
12 21 0.46 0.27
12 22 0.66 0.22
12 23 0.68 0.3
12 24 0.46 0.33
12 25 0.63 0.21
12 26 0.58 0.33
12 27 0.63 0.27
12 28 0.72 0.29
12 29 0.56 0.29
12 30 0.54 0.27
12 31 0.5 0.27
12 32 0.48 0.29
12 33 0.58 0.24
12 34 0.59 0.23
12 35 0.59 0.17
12 36 0.63 0.12
12 37 0.43 0.24
12 38 0.65 0.16
12 39 0.24 0.08
13 14 0.51 0.24
13 15 0.77 0.28
13 16 0.46 0.18
13 17 0.58 0.29
13 18 0.32 0.16
13 19 0.64 0.22
13 20 0.71 0.2
13 21 0.44 0.2
13 22 0.73 0.33
13 23 0.68 0.26
13 24 0.64 0.36
13 25 0.54 0.24
13 26 0.5 0.24
13 27 0.7 0.34
13 28 0.32 0.05
13 29 0.6 0.36
13 30 0.36 0.27
13 31 0.44 0.23
13 32 0.6 0.23
13 33 0.75 0.3
13 34 0.41 0.27
13 35 0.46 0.13
13 36 0.64 0.25
13 37 0.45 0.24
13 38 0.71 0.1
13 39 0.8 0.24
14 15 0.68 0.26
14 16 0.67 0.27
14 17 0.56 0.19
14 18 0.63 0.21
14 19 0.54 0.26
14 20 0.81 0.29
14 21 0.65 0.25
14 22 0.66 0.18
14 23 0.48 0.18
14 24 0.42 0.2
14 25 0.72 0.08
14 26 0.36 0.16
14 27 0.58 0.14
14 28 0.74 0.29
14 29 0.62 0.12
14 30 0.24 0.1
14 31 0.74 0.16
14 32 0.28 0.15
14 33 0.41 0.23
14 34 0.52 0.29
14 35 0.6 0.17
14 36 0.64 0.12
14 37 0.6 0.23
14 38 0.56 0.14
14 39 0.56 0.16
15 16 0.66 0.3
15 17 0.49 0.31
15 18 0.58 0.22
15 19 0.68 0.35
15 20 0.47 0.23
15 21 0.65 0.33
15 22 0.34 0.26
15 23 0.6 0.26
15 24 0.61 0.38
15 25 0.43 0.3
15 26 0.58 0.34
15 27 0.42 0.2
15 28 0.63 0.32
15 29 0.4 0.32
15 30 0.44 0.28
15 31 0.49 0.28
15 32 0.52 0.36
15 33 0.44 0.36
15 34 0.42 0.28
15 35 0.56 0.2
15 36 0.57 0.31
15 37 0.59 0.29
15 38 0.48 0.23
15 39 0.45 0.27
16 17 0.56 0.28
16 18 0.72 0.3
16 19 0.53 0.33
16 20 0.53 0.08
16 21 0.32 0.12
16 22 0.46 0.23
16 23 0.53 0.28
16 24 0.4 0.38
16 25 0.58 0.19
16 26 0.42 0.32
16 27 0.59 0.3
16 28 0.5 0.23
16 29 0.56 0.26
16 30 0.71 0.32
16 31 0.57 0.11
16 32 0.39 0.19
16 33 0.47 0.27
16 34 0.26 0.18
16 35 0.36 0.18
16 36 0.49 0.28
16 37 0.78 0.24
16 38 0.5 0.21
16 39 0.38 0.24
17 18 0.44 0.16
17 19 0.64 0.31
17 20 0.67 0.31
17 21 0.51 0.21
17 22 0.15 0.12
17 23 0.56 0.25
17 24 0.68 0.34
17 25 0.63 0.18
17 26 0.45 0.29
17 27 0.66 0.22
17 28 0.53 0.28
17 29 0.62 0.25
17 30 0.32 0.26
17 31 0.46 0.25
17 32 0.38 0.13
17 33 0.48 0.05
17 34 0.31 0.17
17 35 0.65 0.16
17 36 0.08 0.07
17 37 0.56 0.16
17 38 0.6 0.19
17 39 0.5 0.11
18 19 0.32 0.26
18 20 0.39 0.33
18 21 0.63 0.23
18 22 0.48 0.28
18 23 0.59 0.19
18 24 0.32 0.26
18 25 0.73 0.25
18 26 0.68 0.36
18 27 0.5 0.22
18 28 0.64 0.14
18 29 0.28 0.22
18 30 0.68 0.11
18 31 0.6 0.19
18 32 0.58 0.28
18 33 0.68 0.21
18 34 0.59 0.27
18 35 0.52 0.24
18 36 0.36 0.09
18 37 0.77 0.21
18 38 0.51 0.22
18 39 0.78 0.13
19 20 0.42 0.3
19 21 0.72 0.37
19 22 0.78 0.4
19 23 0.46 0.26
19 24 0.34 0.15
19 25 0.42 0.26
19 26 0.5 0.22
19 27 0.53 0.33
19 28 0.66 0.27
19 29 0.6 0.38
19 30 0.78 0.31
19 31 0.5 0.25
19 32 0.26 0.2
19 33 0.76 0.28
19 34 0.6 0.27
19 35 0.6 0.15
19 36 0.56 0.31
19 37 0.72 0.28
19 38 0.4 0.12
19 39 0.75 0.32
20 21 0.36 0.2
20 22 0.63 0.31
20 23 0.64 0.32
20 24 0.48 0.32
20 25 0.34 0.27
20 26 0.69 0.4
20 27 0.31 0.24
20 28 0.75 0.24
20 29 0.24 0.18
20 30 0.57 0.24
20 31 0.56 0.19
20 32 0.68 0.24
20 33 0.63 0.32
20 34 0.59 0.26
20 35 0.68 0.26
20 36 0.75 0.24
20 37 0.75 0.16
20 38 0.69 0.25
20 39 0.56 0.2
21 22 0.5 0.32
21 23 0.44 0.22
21 24 0.59 0.32
21 25 0.61 0.29
21 26 0.39 0.24
21 27 0.55 0.26
21 28 0.62 0.25
21 29 0.6 0.3
21 30 0.44 0.3
21 31 0.46 0.23
21 32 0.54 0.23
21 33 0.58 0.22
21 34 0.23 0.1
21 35 0.68 0.24
21 36 0.46 0.24
21 37 0.64 0.31
21 38 0.45 0.27
21 39 0.56 0.25
22 23 0.7 0.36
22 24 0.66 0.36
22 25 0.77 0.26
22 26 0.3 0.2
22 27 0.66 0.32
22 28 0.6 0.37
22 29 0.47 0.3
22 30 0.47 0.28
22 31 0.58 0.34
22 32 0.53 0.2
22 33 0.34 0.12
22 34 0.43 0.24
22 35 0.7 0.28
22 36 0.23 0.19
22 37 0.64 0.28
22 38 0.46 0.31
22 39 0.42 0.23
23 24 0.73 0.32
23 25 0.67 0.24
23 26 0.43 0.26
23 27 0.7 0.14
23 28 0.66 0.31
23 29 0.64 0.3
23 30 0.36 0.08
23 31 0.34 0.22
23 32 0.2 0.17
23 33 0.72 0.24
23 34 0.27 0.12
23 35 0.52 0.24
23 36 0.5 0.18
23 37 0.7 0.2
23 38 0.42 0.27
23 39 0.5 0.22
24 25 0.52 0.24
24 26 0.71 0.36
24 27 0.19 0.18
24 28 0.85 0.4
24 29 0.52 0.32
24 30 0.53 0.3
24 31 0.77 0.28
24 32 0.58 0.35
24 33 0.71 0.36
24 34 0.66 0.34
24 35 0.71 0.3
24 36 0.6 0.27
24 37 0.57 0.39
24 38 0.61 0.27
24 39 0.68 0.29
25 26 0.57 0.24
25 27 0.52 0.18
25 28 0.54 0.29
25 29 0.58 0.2
25 30 0.66 0.18
25 31 0.33 0.08
25 32 0.61 0.23
25 33 0.58 0.23
25 34 0.7 0.31
25 35 0.62 0.17
25 36 0.65 0.16
25 37 0.68 0.21
25 38 0.36 0.14
25 39 0.72 0.2
26 27 0.52 0.3
26 28 0.49 0.28
26 29 0.58 0.28
26 30 0.47 0.25
26 31 0.56 0.3
26 32 0.24 0.16
26 33 0.49 0.24
26 34 0.16 0.14
26 35 0.63 0.16
26 36 0.39 0.28
26 37 0.68 0.24
26 38 0.52 0.19
26 39 0.62 0.29
27 28 0.66 0.34
27 29 0.55 0.26
27 30 0.34 0.22
27 31 0.68 0.26
27 32 0.55 0.29
27 33 0.83 0.27
27 34 0.47 0.16
27 35 0.52 0.27
27 36 0.7 0.22
27 37 0.76 0.34
27 38 0.62 0.24
27 39 0.49 0.26
28 29 0.52 0.36
28 30 0.6 0.25
28 31 0.44 0.26
28 32 0.65 0.28
28 33 0.5 0.25
28 34 0.39 0.24
28 35 0.14 0.12
28 36 0.52 0.23
28 37 0.76 0.28
28 38 0.78 0.15
28 39 0.66 0.27
29 30 0.62 0.22
29 31 0.32 0.26
29 32 0.58 0.27
29 33 0.75 0.3
29 34 0.65 0.34
29 35 0.44 0.29
29 36 0.58 0.24
29 37 0.74 0.32
29 38 0.72 0.26
29 39 0.58 0.28
30 31 0.7 0.26
30 32 0.52 0.25
30 33 0.65 0.31
30 34 0.63 0.2
30 35 0.64 0.2
30 36 0.4 0.2
30 37 0.81 0.28
30 38 0.76 0.19
30 39 0.76 0.24
31 32 0.54 0.26
31 33 0.51 0.22
31 34 0.61 0.28
31 35 0.58 0.14
31 36 0.49 0.24
31 37 0.66 0.29
31 38 0.4 0.13
31 39 0.52 0.24
32 33 0.52 0.08
32 34 0.4 0.19
32 35 0.69 0.16
32 36 0.46 0.19
32 37 0.51 0.08
32 38 0.28 0.13
32 39 0.64 0.23
33 34 0.63 0.12
33 35 0.58 0.21
33 36 0.4 0.12
33 37 0.61 0.16
33 38 0.66 0.21
33 39 0.34 0.16
34 35 0.52 0.14
34 36 0.23 0.19
34 37 0.69 0.27
34 38 0.68 0.17
34 39 0.64 0.15
35 36 0.57 0.23
35 37 0.62 0.16
35 38 0.86 0.03
35 39 0.6 0.25
36 37 0.64 0.12
36 38 0.68 0.22
36 39 0.42 0.04
37 38 0.46 0.19
37 39 0.62 0.16
38 39 0.78 0.24
